SAT
-76 -41 64 65 86 -10 -28 -22 5 -7 -98 -35 -27 73 84 24 -62 -15 48 12 67 32 -56 100 -6 -81 60 55 -75 -80 26 -97 1 38 34 -54 -66 82 -94 -57 52 74 -11 -95 40 -16 -89 31 90 43 79 -3 -93 20 30 -17 -45 -87 77 -19 -36 -39 -4 13 -42 -37 -59 18 44 -51 33 -21 -92 83 68 47 -14 96 71 63 70 2 -88 -46 78 -85 49 8 69 -25 -58 23 53 61 -29 -99 -50 -72 -91 -9 0
